c "36446.clq"
p edge 100 384
e 1 5
e 1 6
e 1 9
e 1 12
e 1 13
e 1 15
e 1 21
e 1 22
e 1 23
e 1 26
e 1 29
e 1 31
e 1 36
e 1 37
e 1 42
e 1 46
e 1 48
e 1 50
e 1 51
e 1 60
e 1 69
e 1 78
e 1 81
e 1 88
e 1 94
e 1 100
e 2 5
e 2 7
e 2 11
e 2 12
e 2 13
e 2 14
e 2 16
e 2 22
e 2 23
e 2 25
e 2 33
e 2 50
e 2 56
e 3 5
e 3 6
e 3 8
e 3 35
e 3 59
e 4 5
e 4 6
e 4 7
e 4 8
e 4 9
e 4 11
e 4 20
e 4 27
e 4 28
e 4 29
e 4 30
e 4 31
e 4 32
e 4 33
e 4 34
e 4 36
e 4 53
e 4 56
e 4 58
e 4 62
e 4 63
e 4 65
e 4 80
e 4 89
e 4 92
e 4 94
e 4 98
e 5 6
e 5 7
e 5 8
e 5 9
e 5 10
e 5 14
e 5 15
e 5 19
e 5 27
e 5 33
e 5 43
e 5 60
e 5 73
e 5 74
e 5 95
e 6 7
e 6 8
e 6 9
e 6 10
e 6 11
e 6 12
e 6 14
e 6 17
e 6 18
e 6 19
e 6 20
e 6 21
e 6 24
e 6 29
e 6 37
e 6 39
e 6 42
e 6 45
e 6 46
e 6 50
e 6 51
e 6 55
e 6 57
e 6 62
e 6 68
e 6 77
e 6 82
e 6 87
e 6 95
e 6 97
e 7 13
e 7 16
e 7 18
e 7 20
e 7 23
e 7 25
e 7 28
e 7 39
e 7 53
e 7 55
e 7 57
e 7 61
e 7 65
e 7 66
e 7 70
e 7 72
e 7 73
e 7 91
e 7 98
e 8 10
e 8 13
e 8 17
e 8 21
e 8 24
e 8 26
e 8 31
e 8 54
e 8 61
e 8 64
e 8 67
e 8 79
e 8 82
e 8 90
e 9 10
e 9 11
e 9 19
e 9 32
e 9 35
e 9 38
e 9 49
e 9 65
e 9 66
e 9 72
e 9 75
e 9 79
e 9 90
e 9 91
e 10 12
e 10 16
e 10 17
e 10 22
e 10 43
e 10 60
e 10 71
e 11 14
e 11 15
e 11 18
e 11 30
e 11 44
e 11 51
e 11 81
e 11 86
e 12 15
e 12 34
e 12 49
e 12 51
e 12 68
e 13 16
e 13 26
e 13 37
e 13 38
e 13 41
e 13 43
e 13 70
e 13 77
e 13 87
e 13 99
e 14 35
e 14 45
e 14 47
e 14 52
e 14 72
e 14 73
e 14 79
e 14 85
e 14 94
e 15 17
e 15 18
e 15 20
e 15 32
e 15 49
e 15 53
e 15 69
e 15 77
e 15 83
e 15 100
e 16 41
e 16 46
e 16 58
e 16 68
e 16 74
e 16 78
e 16 91
e 17 24
e 17 25
e 17 47
e 17 48
e 17 56
e 17 62
e 17 63
e 17 65
e 17 66
e 17 80
e 17 88
e 18 19
e 18 34
e 18 61
e 18 66
e 18 70
e 18 76
e 18 80
e 18 84
e 19 21
e 19 35
e 19 39
e 19 40
e 19 57
e 19 99
e 20 22
e 20 36
e 20 40
e 20 54
e 20 59
e 20 64
e 20 82
e 20 83
e 21 23
e 21 38
e 21 44
e 21 56
e 21 67
e 21 75
e 22 24
e 22 26
e 22 48
e 22 96
e 22 99
e 23 29
e 23 30
e 23 31
e 23 32
e 23 55
e 23 58
e 23 60
e 23 67
e 23 68
e 23 69
e 23 71
e 23 79
e 23 83
e 23 91
e 23 93
e 23 95
e 24 25
e 24 33
e 24 41
e 24 69
e 25 27
e 25 28
e 25 30
e 25 43
e 25 73
e 25 75
e 25 76
e 25 98
e 26 27
e 26 28
e 26 97
e 27 46
e 27 72
e 28 40
e 28 41
e 28 44
e 28 58
e 28 62
e 28 76
e 28 86
e 29 36
e 29 37
e 29 78
e 29 96
e 29 97
e 30 74
e 31 63
e 31 64
e 32 38
e 32 53
e 32 54
e 32 59
e 32 96
e 33 34
e 33 42
e 33 47
e 33 87
e 34 42
e 34 44
e 34 84
e 34 89
e 35 54
e 35 71
e 36 39
e 36 49
e 36 90
e 36 92
e 37 40
e 37 45
e 37 82
e 37 90
e 38 93
e 39 85
e 39 87
e 41 45
e 41 70
e 41 84
e 41 86
e 42 52
e 42 59
e 43 48
e 43 50
e 43 64
e 44 47
e 44 55
e 45 78
e 46 52
e 46 88
e 47 96
e 48 57
e 48 98
e 49 89
e 50 81
e 51 52
e 51 92
e 53 61
e 53 74
e 54 77
e 54 84
e 54 86
e 57 67
e 58 94
e 59 83
e 59 100
e 61 71
e 61 97
e 62 63
e 62 85
e 63 99
e 64 80
e 64 89
e 67 76
e 68 75
e 68 85
e 70 100
e 71 92
e 77 93
e 78 81
e 78 95
e 82 93
e 84 88
